8
0 398 391 320 729 237 498 244
398 0 458 402 480 167 297 609
391 458 0 74 456 353 281 611
320 402 74 0 476 283 274 547
729 480 456 476 0 536 231 973
237 167 353 283 536 0 311 464
498 297 281 274 231 311 0 742
244 609 611 547 973 464 742 0
